c Maximum weighted clique instances generated from exactcolors.
c cutoff: 4761604.
c A clique of value > scalef (4761604) defines an improving stable sets for coloring.
p edge 30 0
n 1 4761604
n 2 4761604
n 3 4761604
n 4 4761604
n 5 4761604
n 6 4761604
n 7 4761604
n 8 4761604
n 9 4761604
n 10 4761604
n 11 4761604
n 12 4761604
n 13 4761604
n 14 4761604
n 15 4761604
n 16 4761604
n 17 4761604
n 18 4761604
n 19 4761604
n 20 4761604
n 21 4761604
n 22 4761604
n 23 4761604
n 24 4761604
n 25 4761604
n 26 4761604
n 27 4761604
n 28 4761604
n 29 4761604
n 30 4761604
